p cnf 462 1022
-2 1 0
-4 3 0
-6 5 0
-8 7 0
-10 9 0
-12 11 0
-14 13 0
-16 15 0
-18 17 0
-20 19 0
-22 21 0
-24 23 0
-26 25 0
-28 27 0
-29 28 0
-31 30 0
-32 31 0
-34 33 0
-35 34 0
-37 36 0
-38 37 0
39 0
22 40 0
-20 40 0
22 -20 41 0
-19 40 0
22 -19 41 0
-20 -19 41 0
22 -20 -19 42 0
-39 43 0
-40 43 0
-41 44 0
-42 45 0
-39 -40 44 0
-39 -41 45 0
-39 -42 46 0
-18 47 0
-17 47 0
-18 -17 48 0
-16 47 0
-18 -16 48 0
-17 -16 48 0
-18 -17 -16 49 0
-15 50 0
-2 50 0
-15 -2 51 0
-1 50 0
-15 -1 51 0
-2 -1 51 0
-15 -2 -1 52 0
-47 53 0
-48 54 0
-49 55 0
-50 53 0
-51 54 0
-52 55 0
-47 -50 54 0
-47 -51 55 0
-47 -52 56 0
-48 -50 55 0
-48 -51 56 0
-48 -52 57 0
-49 -50 56 0
-49 -51 57 0
-49 -52 58 0
-43 59 0
-45 60 0
-53 59 0
-55 60 0
-57 61 0
-43 -53 60 0
-43 -55 61 0
-43 -57 62 0
-45 -53 61 0
-45 -55 62 0
-45 -57 63 0
-44 64 0
-46 65 0
-54 64 0
-56 65 0
-58 66 0
-44 -54 65 0
-44 -56 66 0
-44 -58 67 0
-46 -54 66 0
-46 -56 67 0
-46 -58 68 0
-60 69 0
-64 69 0
-60 -64 70 0
-61 71 0
-65 71 0
-61 -65 72 0
-62 73 0
-66 73 0
-62 -66 74 0
-63 75 0
-67 75 0
-63 -67 76 0
-68 0
22 77 0
-69 77 0
-71 78 0
-73 79 0
-75 80 0
-68 81 0
22 -69 78 0
22 -71 79 0
22 -73 80 0
22 -75 81 0
-81 0
82 0
-22 83 0
20 83 0
-22 20 84 0
19 83 0
-22 19 84 0
20 19 84 0
-22 20 19 85 0
18 86 0
17 86 0
18 17 87 0
16 86 0
18 16 87 0
17 16 87 0
18 17 16 88 0
15 89 0
2 89 0
15 2 90 0
1 89 0
15 1 90 0
2 1 90 0
15 2 1 91 0
-86 92 0
-87 93 0
-88 94 0
-89 92 0
-90 93 0
-91 94 0
-86 -89 93 0
-86 -90 94 0
-86 -91 95 0
-87 -89 94 0
-87 -90 95 0
-88 -89 95 0
-83 96 0
-84 97 0
-85 98 0
-92 96 0
-93 97 0
-94 98 0
-95 99 0
-83 -92 97 0
-83 -93 98 0
-83 -94 99 0
-84 -92 98 0
-84 -93 99 0
-85 -92 99 0
-99 0
-22 100 0
-97 100 0
-99 101 0
-22 -97 101 0
-101 0
102 0
-102 103 0
24 103 0
-102 24 104 0
-18 103 0
-102 -18 104 0
24 -18 104 0
-102 24 -18 105 0
-17 106 0
-16 106 0
-17 -16 107 0
-15 108 0
-4 108 0
-15 -4 109 0
-3 108 0
-15 -3 109 0
-4 -3 109 0
-15 -4 -3 110 0
-106 111 0
-107 112 0
-108 111 0
-109 112 0
-110 113 0
-106 -108 112 0
-106 -109 113 0
-106 -110 114 0
-107 -108 113 0
-107 -109 114 0
-107 -110 115 0
-103 116 0
-104 117 0
-105 118 0
-111 116 0
-112 117 0
-113 118 0
-114 119 0
-115 120 0
-103 -111 117 0
-103 -112 118 0
-103 -113 119 0
-103 -114 120 0
-103 -115 121 0
-104 -111 118 0
-104 -112 119 0
-104 -113 120 0
-104 -114 121 0
-104 -115 122 0
-105 -111 119 0
-105 -112 120 0
-105 -113 121 0
-105 -114 122 0
-105 -115 123 0
-123 0
24 124 0
-117 124 0
-119 125 0
-121 126 0
-123 127 0
24 -117 125 0
24 -119 126 0
24 -121 127 0
-127 0
128 0
18 129 0
17 129 0
18 17 130 0
16 129 0
18 16 130 0
17 16 130 0
18 17 16 131 0
15 132 0
4 132 0
15 4 133 0
3 132 0
15 3 133 0
4 3 133 0
15 4 3 134 0
-129 135 0
-130 136 0
-131 137 0
-132 135 0
-133 136 0
-134 137 0
-129 -132 136 0
-129 -133 137 0
-129 -134 138 0
-130 -132 137 0
-130 -133 138 0
-131 -132 138 0
-24 139 0
-135 139 0
-136 140 0
-137 141 0
-138 142 0
-24 -135 140 0
-24 -136 141 0
-24 -137 142 0
-142 0
-24 143 0
-140 143 0
-142 144 0
-24 -140 144 0
-144 0
145 0
-145 146 0
26 146 0
-145 26 147 0
-18 146 0
-145 -18 147 0
26 -18 147 0
-145 26 -18 148 0
-17 149 0
-6 149 0
-17 -6 150 0
-5 149 0
-17 -5 150 0
-6 -5 150 0
-17 -6 -5 151 0
-146 152 0
-147 153 0
-148 154 0
-149 152 0
-150 153 0
-151 154 0
-146 -149 153 0
-146 -150 154 0
-146 -151 155 0
-147 -149 154 0
-147 -150 155 0
-147 -151 156 0
-148 -149 155 0
-148 -150 156 0
-148 -151 157 0
-157 0
26 158 0
-153 158 0
-155 159 0
-157 160 0
26 -153 159 0
26 -155 160 0
-160 0
161 0
-26 162 0
18 162 0
-26 18 163 0
17 164 0
6 164 0
17 6 165 0
5 164 0
17 5 165 0
6 5 165 0
17 6 5 166 0
-162 167 0
-163 168 0
-164 167 0
-165 168 0
-166 169 0
-162 -164 168 0
-162 -165 169 0
-162 -166 170 0
-163 -164 169 0
-163 -165 170 0
-170 0
-26 171 0
-168 171 0
-170 172 0
-26 -168 172 0
-172 0
173 0
-173 174 0
29 174 0
-173 29 175 0
28 174 0
-173 28 175 0
29 28 175 0
-173 29 28 176 0
-15 177 0
-8 177 0
-15 -8 178 0
-7 177 0
-15 -7 178 0
-8 -7 178 0
-15 -8 -7 179 0
-16 180 0
-177 180 0
-178 181 0
-179 182 0
-16 -177 181 0
-16 -178 182 0
-16 -179 183 0
-174 184 0
-175 185 0
-176 186 0
-180 184 0
-181 185 0
-182 186 0
-183 187 0
-174 -180 185 0
-174 -181 186 0
-174 -182 187 0
-174 -183 188 0
-175 -180 186 0
-175 -181 187 0
-175 -182 188 0
-175 -183 189 0
-176 -180 187 0
-176 -181 188 0
-176 -182 189 0
-176 -183 190 0
29 191 0
28 191 0
29 28 192 0
-20 191 0
29 -20 192 0
28 -20 192 0
29 28 -20 193 0
-19 194 0
-18 194 0
-19 -18 195 0
-17 194 0
-19 -17 195 0
-18 -17 195 0
-19 -18 -17 196 0
-191 197 0
-192 198 0
-193 199 0
-194 197 0
-195 198 0
-196 199 0
-191 -194 198 0
-191 -195 199 0
-191 -196 200 0
-192 -194 199 0
-192 -195 200 0
-192 -196 201 0
-193 -194 200 0
-193 -195 201 0
-193 -196 202 0
-197 203 0
-198 204 0
-199 205 0
-200 206 0
-201 207 0
-202 208 0
-185 203 0
-187 204 0
-189 205 0
-197 -185 204 0
-197 -187 205 0
-197 -189 206 0
-198 -185 205 0
-198 -187 206 0
-198 -189 207 0
-199 -185 206 0
-199 -187 207 0
-199 -189 208 0
-200 -185 207 0
-200 -187 208 0
-200 -189 209 0
-201 -185 208 0
-201 -187 209 0
-202 -185 209 0
-209 0
210 0
-210 211 0
-29 211 0
-210 -29 212 0
-28 211 0
-210 -28 212 0
-29 -28 212 0
-210 -29 -28 213 0
15 214 0
8 214 0
15 8 215 0
7 214 0
15 7 215 0
8 7 215 0
15 8 7 216 0
16 217 0
-214 217 0
-215 218 0
-216 219 0
16 -214 218 0
16 -215 219 0
16 -216 220 0
-211 221 0
-212 222 0
-213 223 0
-217 221 0
-218 222 0
-219 223 0
-220 224 0
-211 -217 222 0
-211 -218 223 0
-211 -219 224 0
-211 -220 225 0
-212 -217 223 0
-212 -218 224 0
-212 -219 225 0
-212 -220 226 0
-213 -217 224 0
-213 -218 225 0
-213 -219 226 0
-213 -220 227 0
-29 228 0
-28 228 0
-29 -28 229 0
20 228 0
-29 20 229 0
-28 20 229 0
-29 -28 20 230 0
19 231 0
18 231 0
19 18 232 0
17 231 0
19 17 232 0
18 17 232 0
19 18 17 233 0
-228 234 0
-229 235 0
-230 236 0
-231 234 0
-232 235 0
-233 236 0
-228 -231 235 0
-228 -232 236 0
-228 -233 237 0
-229 -231 236 0
-229 -232 237 0
-230 -231 237 0
-237 0
-234 238 0
-235 239 0
-236 240 0
-237 241 0
-222 238 0
-224 239 0
-226 240 0
-234 -222 239 0
-234 -224 240 0
-234 -226 241 0
-235 -222 240 0
-235 -224 241 0
-236 -222 241 0
-241 0
242 0
-242 243 0
32 243 0
-242 32 244 0
31 243 0
-242 31 244 0
32 31 244 0
-242 32 31 245 0
-19 246 0
-10 246 0
-19 -10 247 0
-9 246 0
-19 -9 247 0
-10 -9 247 0
-19 -10 -9 248 0
-20 249 0
-246 249 0
-247 250 0
-248 251 0
-20 -246 250 0
-20 -247 251 0
-20 -248 252 0
-243 253 0
-244 254 0
-245 255 0
-249 253 0
-250 254 0
-251 255 0
-252 256 0
-243 -249 254 0
-243 -250 255 0
-243 -251 256 0
-243 -252 257 0
-244 -249 255 0
-244 -250 256 0
-244 -251 257 0
-244 -252 258 0
-245 -249 256 0
-245 -250 257 0
-245 -251 258 0
-245 -252 259 0
31 260 0
-16 260 0
31 -16 261 0
-15 260 0
31 -15 261 0
-16 -15 261 0
31 -16 -15 262 0
32 263 0
-260 263 0
-261 264 0
-262 265 0
32 -260 264 0
32 -261 265 0
32 -262 266 0
-263 267 0
-264 268 0
-265 269 0
-266 270 0
-254 267 0
-256 268 0
-258 269 0
-263 -254 268 0
-263 -256 269 0
-263 -258 270 0
-264 -254 269 0
-264 -256 270 0
-264 -258 271 0
-265 -254 270 0
-265 -256 271 0
-266 -254 271 0
-271 0
272 0
-272 273 0
-32 273 0
-272 -32 274 0
-31 273 0
-272 -31 274 0
-32 -31 274 0
-272 -32 -31 275 0
19 276 0
10 276 0
19 10 277 0
9 276 0
19 9 277 0
10 9 277 0
19 10 9 278 0
20 279 0
-276 279 0
-277 280 0
-278 281 0
20 -276 280 0
20 -277 281 0
20 -278 282 0
-273 283 0
-274 284 0
-275 285 0
-279 283 0
-280 284 0
-281 285 0
-282 286 0
-273 -279 284 0
-273 -280 285 0
-273 -281 286 0
-273 -282 287 0
-274 -279 285 0
-274 -280 286 0
-274 -281 287 0
-274 -282 288 0
-275 -279 286 0
-275 -280 287 0
-275 -281 288 0
-275 -282 289 0
-31 290 0
16 290 0
-31 16 291 0
15 290 0
-31 15 291 0
16 15 291 0
-31 16 15 292 0
-32 293 0
-290 293 0
-291 294 0
-292 295 0
-32 -290 294 0
-32 -291 295 0
-32 -292 296 0
-296 0
-293 297 0
-294 298 0
-295 299 0
-296 300 0
-284 297 0
-286 298 0
-288 299 0
-293 -284 298 0
-293 -286 299 0
-293 -288 300 0
-294 -284 299 0
-294 -286 300 0
-295 -284 300 0
-300 0
301 0
-301 302 0
35 302 0
-301 35 303 0
34 302 0
-301 34 303 0
35 34 303 0
-301 35 34 304 0
-15 305 0
-12 305 0
-15 -12 306 0
-11 305 0
-15 -11 306 0
-12 -11 306 0
-15 -12 -11 307 0
-16 308 0
-305 308 0
-306 309 0
-307 310 0
-16 -305 309 0
-16 -306 310 0
-16 -307 311 0
-302 312 0
-303 313 0
-304 314 0
-308 312 0
-309 313 0
-310 314 0
-311 315 0
-302 -308 313 0
-302 -309 314 0
-302 -310 315 0
-302 -311 316 0
-303 -308 314 0
-303 -309 315 0
-303 -310 316 0
-303 -311 317 0
-304 -308 315 0
-304 -309 316 0
-304 -310 317 0
-304 -311 318 0
35 319 0
34 319 0
35 34 320 0
-20 319 0
35 -20 320 0
34 -20 320 0
35 34 -20 321 0
-19 322 0
-18 322 0
-19 -18 323 0
-17 322 0
-19 -17 323 0
-18 -17 323 0
-19 -18 -17 324 0
-319 325 0
-320 326 0
-321 327 0
-322 325 0
-323 326 0
-324 327 0
-319 -322 326 0
-319 -323 327 0
-319 -324 328 0
-320 -322 327 0
-320 -323 328 0
-320 -324 329 0
-321 -322 328 0
-321 -323 329 0
-321 -324 330 0
-325 331 0
-326 332 0
-327 333 0
-328 334 0
-329 335 0
-330 336 0
-313 331 0
-315 332 0
-317 333 0
-325 -313 332 0
-325 -315 333 0
-325 -317 334 0
-326 -313 333 0
-326 -315 334 0
-326 -317 335 0
-327 -313 334 0
-327 -315 335 0
-327 -317 336 0
-328 -313 335 0
-328 -315 336 0
-328 -317 337 0
-329 -313 336 0
-329 -315 337 0
-330 -313 337 0
-337 0
338 0
-338 339 0
-35 339 0
-338 -35 340 0
-34 339 0
-338 -34 340 0
-35 -34 340 0
-338 -35 -34 341 0
15 342 0
12 342 0
15 12 343 0
11 342 0
15 11 343 0
12 11 343 0
15 12 11 344 0
16 345 0
-342 345 0
-343 346 0
-344 347 0
16 -342 346 0
16 -343 347 0
16 -344 348 0
-339 349 0
-340 350 0
-341 351 0
-345 349 0
-346 350 0
-347 351 0
-348 352 0
-339 -345 350 0
-339 -346 351 0
-339 -347 352 0
-339 -348 353 0
-340 -345 351 0
-340 -346 352 0
-340 -347 353 0
-340 -348 354 0
-341 -345 352 0
-341 -346 353 0
-341 -347 354 0
-341 -348 355 0
-35 356 0
-34 356 0
-35 -34 357 0
20 356 0
-35 20 357 0
-34 20 357 0
-35 -34 20 358 0
19 359 0
18 359 0
19 18 360 0
17 359 0
19 17 360 0
18 17 360 0
19 18 17 361 0
-356 362 0
-357 363 0
-358 364 0
-359 362 0
-360 363 0
-361 364 0
-356 -359 363 0
-356 -360 364 0
-356 -361 365 0
-357 -359 364 0
-357 -360 365 0
-358 -359 365 0
-365 0
-362 366 0
-363 367 0
-364 368 0
-365 369 0
-350 366 0
-352 367 0
-354 368 0
-362 -350 367 0
-362 -352 368 0
-362 -354 369 0
-363 -350 368 0
-363 -352 369 0
-364 -350 369 0
-369 0
370 0
-370 371 0
38 371 0
-370 38 372 0
37 371 0
-370 37 372 0
38 37 372 0
-370 38 37 373 0
-15 374 0
-14 374 0
-15 -14 375 0
-13 374 0
-15 -13 375 0
-14 -13 375 0
-15 -14 -13 376 0
-16 377 0
-374 377 0
-375 378 0
-376 379 0
-16 -374 378 0
-16 -375 379 0
-16 -376 380 0
-371 381 0
-372 382 0
-373 383 0
-377 381 0
-378 382 0
-379 383 0
-380 384 0
-371 -377 382 0
-371 -378 383 0
-371 -379 384 0
-371 -380 385 0
-372 -377 383 0
-372 -378 384 0
-372 -379 385 0
-372 -380 386 0
-373 -377 384 0
-373 -378 385 0
-373 -379 386 0
-373 -380 387 0
37 388 0
-20 388 0
37 -20 389 0
-19 388 0
37 -19 389 0
-20 -19 389 0
37 -20 -19 390 0
38 391 0
-388 391 0
-389 392 0
-390 393 0
38 -388 392 0
38 -389 393 0
38 -390 394 0
-391 395 0
-392 396 0
-393 397 0
-394 398 0
-382 395 0
-384 396 0
-386 397 0
-391 -382 396 0
-391 -384 397 0
-391 -386 398 0
-392 -382 397 0
-392 -384 398 0
-392 -386 399 0
-393 -382 398 0
-393 -384 399 0
-394 -382 399 0
-399 0
400 0
-400 401 0
-38 401 0
-400 -38 402 0
-37 401 0
-400 -37 402 0
-38 -37 402 0
-400 -38 -37 403 0
15 404 0
14 404 0
15 14 405 0
13 404 0
15 13 405 0
14 13 405 0
15 14 13 406 0
16 407 0
-404 407 0
-405 408 0
-406 409 0
16 -404 408 0
16 -405 409 0
16 -406 410 0
-401 411 0
-402 412 0
-403 413 0
-407 411 0
-408 412 0
-409 413 0
-410 414 0
-401 -407 412 0
-401 -408 413 0
-401 -409 414 0
-401 -410 415 0
-402 -407 413 0
-402 -408 414 0
-402 -409 415 0
-402 -410 416 0
-403 -407 414 0
-403 -408 415 0
-403 -409 416 0
-403 -410 417 0
-37 418 0
20 418 0
-37 20 419 0
19 418 0
-37 19 419 0
20 19 419 0
-37 20 19 420 0
-38 421 0
-418 421 0
-419 422 0
-420 423 0
-38 -418 422 0
-38 -419 423 0
-38 -420 424 0
-424 0
-421 425 0
-422 426 0
-423 427 0
-424 428 0
-412 425 0
-414 426 0
-416 427 0
-421 -412 426 0
-421 -414 427 0
-421 -416 428 0
-422 -412 427 0
-422 -414 428 0
-423 -412 428 0
-428 0
1 429 0
3 429 0
1 3 430 0
5 431 0
7 431 0
5 7 432 0
9 433 0
11 433 0
9 11 434 0
13 435 0
15 435 0
13 15 436 0
17 437 0
19 437 0
17 19 438 0
-435 439 0
-437 439 0
-435 -437 440 0
-436 441 0
-438 441 0
-436 -438 442 0
-440 443 0
-441 443 0
-440 -441 444 0
-433 445 0
-439 445 0
-433 -439 446 0
-434 447 0
-443 447 0
-434 -443 448 0
-446 449 0
-447 449 0
-446 -447 450 0
-431 451 0
-445 451 0
-431 -445 452 0
-432 453 0
-449 453 0
-432 -449 454 0
-452 455 0
-453 455 0
-452 -453 456 0
-429 457 0
-451 457 0
-429 -451 458 0
-430 459 0
-455 459 0
-430 -455 460 0
-458 461 0
-459 461 0
-458 -459 462 0
-461 0
